382,-6
450,-48
639,140
681,226
704,258
762,246
704,258
778,336
723,364
681,376
778,336
708,321
850,237
1162,651
921,406
417,42
387,257
584,336
414,542
501,406
733,478
738,424
751,503
699,524
626,577
617,605
699,524
778,476
751,503
850,575
1166,249
977,452
910,721
681,226
570,64
654,321
660,385
681,376
646,358
660,385
622,397
540,212
570,64
382,-6
171,406
414,542
171,406
387,257
738,424
1221,406
1020,67
